109631
0
75
2
3
4
5
6
7
8
9
10
11
12
13
14
74
15
16
17
18
37
36
38
39
40
34
35
33
32
29
30
31
19
20
26
27
28
43
42
54
53
52
49
50
51
66
65
56
55
57
58
59
60
41
61
62
63
64
73
72
71
70
67
68
69
47
48
44
45
46
24
25
21
22
23
1
